\ENCODING=ISO-8859-1
\Problem name: kMIS

Maximize
 obj: x1 + x2 + x3 + x4 + x5 + x6 + x7 + x8 + x9 + x10 + x11 + x12 + x13 + x14
      + x15 + x16 + x17 + x18 + x19 + x20 + x21 + x22 + x23 + x24 + x25 + x26
      + x27 + x28 + x29 + x30 + x31 + x32 + x33 + x34 + x35 + x36 + x37 + x38
      + x39 + x40
Subject To
 c1:   x41 + x42 + x43 + x44 + x45 + x46 + x47 + x48 + x49 + x50 + x51 + x52
       + x53 + x54 + x55 + x56 + x57 + x58 + x59 + x60 + x61 + x62 + x63 + x64
       + x65 + x66 + x67 + x68 + x69 + x70 + x71 + x72 + x73 + x74 + x75 + x76
       + x77 + x78 + x79 + x80  = 12
 c2:   x5 + x41 <= 1
 c3:   x6 + x41 <= 1
 c4:   x7 + x41 <= 1
 c5:   x10 + x41 <= 1
 c6:   x11 + x41 <= 1
 c7:   x12 + x41 <= 1
 c8:   x14 + x41 <= 1
 c9:   x15 + x41 <= 1
 c10:  x19 + x41 <= 1
 c11:  x20 + x41 <= 1
 c12:  x22 + x41 <= 1
 c13:  x24 + x41 <= 1
 c14:  x28 + x41 <= 1
 c15:  x29 + x41 <= 1
 c16:  x32 + x41 <= 1
 c17:  x33 + x41 <= 1
 c18:  x34 + x41 <= 1
 c19:  x35 + x41 <= 1
 c20:  x37 + x41 <= 1
 c21:  x39 + x41 <= 1
 c22:  x40 + x41 <= 1
 c23:  x3 + x42 <= 1
 c24:  x4 + x42 <= 1
 c25:  x5 + x42 <= 1
 c26:  x6 + x42 <= 1
 c27:  x8 + x42 <= 1
 c28:  x10 + x42 <= 1
 c29:  x11 + x42 <= 1
 c30:  x13 + x42 <= 1
 c31:  x14 + x42 <= 1
 c32:  x16 + x42 <= 1
 c33:  x19 + x42 <= 1
 c34:  x20 + x42 <= 1
 c35:  x23 + x42 <= 1
 c36:  x24 + x42 <= 1
 c37:  x28 + x42 <= 1
 c38:  x29 + x42 <= 1
 c39:  x30 + x42 <= 1
 c40:  x31 + x42 <= 1
 c41:  x32 + x42 <= 1
 c42:  x34 + x42 <= 1
 c43:  x37 + x42 <= 1
 c44:  x1 + x43 <= 1
 c45:  x2 + x43 <= 1
 c46:  x3 + x43 <= 1
 c47:  x7 + x43 <= 1
 c48:  x12 + x43 <= 1
 c49:  x13 + x43 <= 1
 c50:  x16 + x43 <= 1
 c51:  x17 + x43 <= 1
 c52:  x19 + x43 <= 1
 c53:  x21 + x43 <= 1
 c54:  x22 + x43 <= 1
 c55:  x23 + x43 <= 1
 c56:  x24 + x43 <= 1
 c57:  x25 + x43 <= 1
 c58:  x28 + x43 <= 1
 c59:  x29 + x43 <= 1
 c60:  x30 + x43 <= 1
 c61:  x32 + x43 <= 1
 c62:  x33 + x43 <= 1
 c63:  x36 + x43 <= 1
 c64:  x38 + x43 <= 1
 c65:  x39 + x43 <= 1
 c66:  x40 + x43 <= 1
 c67:  x2 + x44 <= 1
 c68:  x3 + x44 <= 1
 c69:  x5 + x44 <= 1
 c70:  x6 + x44 <= 1
 c71:  x12 + x44 <= 1
 c72:  x15 + x44 <= 1
 c73:  x18 + x44 <= 1
 c74:  x20 + x44 <= 1
 c75:  x21 + x44 <= 1
 c76:  x23 + x44 <= 1
 c77:  x25 + x44 <= 1
 c78:  x26 + x44 <= 1
 c79:  x28 + x44 <= 1
 c80:  x30 + x44 <= 1
 c81:  x31 + x44 <= 1
 c82:  x32 + x44 <= 1
 c83:  x34 + x44 <= 1
 c84:  x35 + x44 <= 1
 c85:  x36 + x44 <= 1
 c86:  x37 + x44 <= 1
 c87:  x38 + x44 <= 1
 c88:  x39 + x44 <= 1
 c89:  x3 + x45 <= 1
 c90:  x5 + x45 <= 1
 c91:  x6 + x45 <= 1
 c92:  x11 + x45 <= 1
 c93:  x14 + x45 <= 1
 c94:  x16 + x45 <= 1
 c95:  x18 + x45 <= 1
 c96:  x19 + x45 <= 1
 c97:  x21 + x45 <= 1
 c98:  x23 + x45 <= 1
 c99:  x27 + x45 <= 1
 c100: x29 + x45 <= 1
 c101: x32 + x45 <= 1
 c102: x34 + x45 <= 1
 c103: x35 + x45 <= 1
 c104: x37 + x45 <= 1
 c105: x38 + x45 <= 1
 c106: x39 + x45 <= 1
 c107: x8 + x46 <= 1
 c108: x10 + x46 <= 1
 c109: x12 + x46 <= 1
 c110: x13 + x46 <= 1
 c111: x15 + x46 <= 1
 c112: x16 + x46 <= 1
 c113: x22 + x46 <= 1
 c114: x25 + x46 <= 1
 c115: x27 + x46 <= 1
 c116: x29 + x46 <= 1
 c117: x30 + x46 <= 1
 c118: x32 + x46 <= 1
 c119: x33 + x46 <= 1
 c120: x34 + x46 <= 1
 c121: x35 + x46 <= 1
 c122: x38 + x46 <= 1
 c123: x39 + x46 <= 1
 c124: x1 + x47 <= 1
 c125: x5 + x47 <= 1
 c126: x6 + x47 <= 1
 c127: x7 + x47 <= 1
 c128: x8 + x47 <= 1
 c129: x9 + x47 <= 1
 c130: x10 + x47 <= 1
 c131: x11 + x47 <= 1
 c132: x12 + x47 <= 1
 c133: x13 + x47 <= 1
 c134: x14 + x47 <= 1
 c135: x19 + x47 <= 1
 c136: x20 + x47 <= 1
 c137: x21 + x47 <= 1
 c138: x22 + x47 <= 1
 c139: x23 + x47 <= 1
 c140: x24 + x47 <= 1
 c141: x25 + x47 <= 1
 c142: x26 + x47 <= 1
 c143: x28 + x47 <= 1
 c144: x29 + x47 <= 1
 c145: x30 + x47 <= 1
 c146: x34 + x47 <= 1
 c147: x35 + x47 <= 1
 c148: x38 + x47 <= 1
 c149: x39 + x47 <= 1
 c150: x40 + x47 <= 1
 c151: x2 + x48 <= 1
 c152: x3 + x48 <= 1
 c153: x5 + x48 <= 1
 c154: x7 + x48 <= 1
 c155: x17 + x48 <= 1
 c156: x18 + x48 <= 1
 c157: x19 + x48 <= 1
 c158: x22 + x48 <= 1
 c159: x24 + x48 <= 1
 c160: x25 + x48 <= 1
 c161: x27 + x48 <= 1
 c162: x30 + x48 <= 1
 c163: x33 + x48 <= 1
 c164: x34 + x48 <= 1
 c165: x37 + x48 <= 1
 c166: x38 + x48 <= 1
 c167: x39 + x48 <= 1
 c168: x40 + x48 <= 1
 c169: x3 + x49 <= 1
 c170: x4 + x49 <= 1
 c171: x5 + x49 <= 1
 c172: x8 + x49 <= 1
 c173: x9 + x49 <= 1
 c174: x12 + x49 <= 1
 c175: x16 + x49 <= 1
 c176: x23 + x49 <= 1
 c177: x26 + x49 <= 1
 c178: x28 + x49 <= 1
 c179: x33 + x49 <= 1
 c180: x34 + x49 <= 1
 c181: x35 + x49 <= 1
 c182: x37 + x49 <= 1
 c183: x39 + x49 <= 1
 c184: x1 + x50 <= 1
 c185: x2 + x50 <= 1
 c186: x4 + x50 <= 1
 c187: x5 + x50 <= 1
 c188: x6 + x50 <= 1
 c189: x7 + x50 <= 1
 c190: x8 + x50 <= 1
 c191: x9 + x50 <= 1
 c192: x11 + x50 <= 1
 c193: x16 + x50 <= 1
 c194: x18 + x50 <= 1
 c195: x19 + x50 <= 1
 c196: x21 + x50 <= 1
 c197: x23 + x50 <= 1
 c198: x24 + x50 <= 1
 c199: x30 + x50 <= 1
 c200: x31 + x50 <= 1
 c201: x33 + x50 <= 1
 c202: x35 + x50 <= 1
 c203: x36 + x50 <= 1
 c204: x37 + x50 <= 1
 c205: x38 + x50 <= 1
 c206: x1 + x51 <= 1
 c207: x3 + x51 <= 1
 c208: x9 + x51 <= 1
 c209: x12 + x51 <= 1
 c210: x13 + x51 <= 1
 c211: x17 + x51 <= 1
 c212: x19 + x51 <= 1
 c213: x20 + x51 <= 1
 c214: x24 + x51 <= 1
 c215: x26 + x51 <= 1
 c216: x27 + x51 <= 1
 c217: x28 + x51 <= 1
 c218: x30 + x51 <= 1
 c219: x31 + x51 <= 1
 c220: x32 + x51 <= 1
 c221: x33 + x51 <= 1
 c222: x36 + x51 <= 1
 c223: x39 + x51 <= 1
 c224: x3 + x52 <= 1
 c225: x4 + x52 <= 1
 c226: x7 + x52 <= 1
 c227: x9 + x52 <= 1
 c228: x10 + x52 <= 1
 c229: x12 + x52 <= 1
 c230: x13 + x52 <= 1
 c231: x17 + x52 <= 1
 c232: x21 + x52 <= 1
 c233: x25 + x52 <= 1
 c234: x27 + x52 <= 1
 c235: x28 + x52 <= 1
 c236: x29 + x52 <= 1
 c237: x30 + x52 <= 1
 c238: x36 + x52 <= 1
 c239: x37 + x52 <= 1
 c240: x38 + x52 <= 1
 c241: x1 + x53 <= 1
 c242: x5 + x53 <= 1
 c243: x10 + x53 <= 1
 c244: x12 + x53 <= 1
 c245: x14 + x53 <= 1
 c246: x15 + x53 <= 1
 c247: x19 + x53 <= 1
 c248: x22 + x53 <= 1
 c249: x25 + x53 <= 1
 c250: x26 + x53 <= 1
 c251: x28 + x53 <= 1
 c252: x29 + x53 <= 1
 c253: x30 + x53 <= 1
 c254: x31 + x53 <= 1
 c255: x32 + x53 <= 1
 c256: x33 + x53 <= 1
 c257: x37 + x53 <= 1
 c258: x39 + x53 <= 1
 c259: x40 + x53 <= 1
 c260: x1 + x54 <= 1
 c261: x2 + x54 <= 1
 c262: x4 + x54 <= 1
 c263: x10 + x54 <= 1
 c264: x17 + x54 <= 1
 c265: x19 + x54 <= 1
 c266: x20 + x54 <= 1
 c267: x22 + x54 <= 1
 c268: x23 + x54 <= 1
 c269: x25 + x54 <= 1
 c270: x27 + x54 <= 1
 c271: x28 + x54 <= 1
 c272: x30 + x54 <= 1
 c273: x31 + x54 <= 1
 c274: x32 + x54 <= 1
 c275: x33 + x54 <= 1
 c276: x35 + x54 <= 1
 c277: x39 + x54 <= 1
 c278: x40 + x54 <= 1
 c279: x2 + x55 <= 1
 c280: x4 + x55 <= 1
 c281: x5 + x55 <= 1
 c282: x7 + x55 <= 1
 c283: x8 + x55 <= 1
 c284: x9 + x55 <= 1
 c285: x10 + x55 <= 1
 c286: x11 + x55 <= 1
 c287: x12 + x55 <= 1
 c288: x16 + x55 <= 1
 c289: x17 + x55 <= 1
 c290: x18 + x55 <= 1
 c291: x20 + x55 <= 1
 c292: x22 + x55 <= 1
 c293: x23 + x55 <= 1
 c294: x26 + x55 <= 1
 c295: x27 + x55 <= 1
 c296: x28 + x55 <= 1
 c297: x29 + x55 <= 1
 c298: x30 + x55 <= 1
 c299: x32 + x55 <= 1
 c300: x33 + x55 <= 1
 c301: x34 + x55 <= 1
 c302: x35 + x55 <= 1
 c303: x36 + x55 <= 1
 c304: x39 + x55 <= 1
 c305: x2 + x56 <= 1
 c306: x3 + x56 <= 1
 c307: x4 + x56 <= 1
 c308: x8 + x56 <= 1
 c309: x12 + x56 <= 1
 c310: x13 + x56 <= 1
 c311: x14 + x56 <= 1
 c312: x15 + x56 <= 1
 c313: x16 + x56 <= 1
 c314: x18 + x56 <= 1
 c315: x22 + x56 <= 1
 c316: x23 + x56 <= 1
 c317: x26 + x56 <= 1
 c318: x27 + x56 <= 1
 c319: x28 + x56 <= 1
 c320: x30 + x56 <= 1
 c321: x32 + x56 <= 1
 c322: x35 + x56 <= 1
 c323: x37 + x56 <= 1
 c324: x39 + x56 <= 1
 c325: x40 + x56 <= 1
 c326: x1 + x57 <= 1
 c327: x2 + x57 <= 1
 c328: x4 + x57 <= 1
 c329: x5 + x57 <= 1
 c330: x6 + x57 <= 1
 c331: x7 + x57 <= 1
 c332: x10 + x57 <= 1
 c333: x11 + x57 <= 1
 c334: x12 + x57 <= 1
 c335: x17 + x57 <= 1
 c336: x18 + x57 <= 1
 c337: x19 + x57 <= 1
 c338: x21 + x57 <= 1
 c339: x23 + x57 <= 1
 c340: x24 + x57 <= 1
 c341: x27 + x57 <= 1
 c342: x28 + x57 <= 1
 c343: x32 + x57 <= 1
 c344: x35 + x57 <= 1
 c345: x38 + x57 <= 1
 c346: x5 + x58 <= 1
 c347: x6 + x58 <= 1
 c348: x7 + x58 <= 1
 c349: x8 + x58 <= 1
 c350: x9 + x58 <= 1
 c351: x14 + x58 <= 1
 c352: x15 + x58 <= 1
 c353: x18 + x58 <= 1
 c354: x19 + x58 <= 1
 c355: x22 + x58 <= 1
 c356: x24 + x58 <= 1
 c357: x25 + x58 <= 1
 c358: x28 + x58 <= 1
 c359: x30 + x58 <= 1
 c360: x33 + x58 <= 1
 c361: x34 + x58 <= 1
 c362: x35 + x58 <= 1
 c363: x36 + x58 <= 1
 c364: x38 + x58 <= 1
 c365: x1 + x59 <= 1
 c366: x2 + x59 <= 1
 c367: x4 + x59 <= 1
 c368: x5 + x59 <= 1
 c369: x7 + x59 <= 1
 c370: x10 + x59 <= 1
 c371: x12 + x59 <= 1
 c372: x16 + x59 <= 1
 c373: x17 + x59 <= 1
 c374: x18 + x59 <= 1
 c375: x19 + x59 <= 1
 c376: x20 + x59 <= 1
 c377: x21 + x59 <= 1
 c378: x27 + x59 <= 1
 c379: x28 + x59 <= 1
 c380: x29 + x59 <= 1
 c381: x30 + x59 <= 1
 c382: x31 + x59 <= 1
 c383: x34 + x59 <= 1
 c384: x35 + x59 <= 1
 c385: x36 + x59 <= 1
 c386: x40 + x59 <= 1
 c387: x1 + x60 <= 1
 c388: x4 + x60 <= 1
 c389: x5 + x60 <= 1
 c390: x6 + x60 <= 1
 c391: x7 + x60 <= 1
 c392: x9 + x60 <= 1
 c393: x11 + x60 <= 1
 c394: x13 + x60 <= 1
 c395: x15 + x60 <= 1
 c396: x19 + x60 <= 1
 c397: x20 + x60 <= 1
 c398: x21 + x60 <= 1
 c399: x26 + x60 <= 1
 c400: x30 + x60 <= 1
 c401: x31 + x60 <= 1
 c402: x32 + x60 <= 1
 c403: x33 + x60 <= 1
 c404: x34 + x60 <= 1
 c405: x36 + x60 <= 1
 c406: x38 + x60 <= 1
 c407: x39 + x60 <= 1
 c408: x1 + x61 <= 1
 c409: x2 + x61 <= 1
 c410: x5 + x61 <= 1
 c411: x6 + x61 <= 1
 c412: x8 + x61 <= 1
 c413: x9 + x61 <= 1
 c414: x13 + x61 <= 1
 c415: x14 + x61 <= 1
 c416: x19 + x61 <= 1
 c417: x22 + x61 <= 1
 c418: x25 + x61 <= 1
 c419: x27 + x61 <= 1
 c420: x29 + x61 <= 1
 c421: x30 + x61 <= 1
 c422: x31 + x61 <= 1
 c423: x38 + x61 <= 1
 c424: x39 + x61 <= 1
 c425: x1 + x62 <= 1
 c426: x3 + x62 <= 1
 c427: x4 + x62 <= 1
 c428: x5 + x62 <= 1
 c429: x6 + x62 <= 1
 c430: x9 + x62 <= 1
 c431: x12 + x62 <= 1
 c432: x14 + x62 <= 1
 c433: x18 + x62 <= 1
 c434: x19 + x62 <= 1
 c435: x20 + x62 <= 1
 c436: x23 + x62 <= 1
 c437: x24 + x62 <= 1
 c438: x25 + x62 <= 1
 c439: x27 + x62 <= 1
 c440: x28 + x62 <= 1
 c441: x29 + x62 <= 1
 c442: x32 + x62 <= 1
 c443: x35 + x62 <= 1
 c444: x36 + x62 <= 1
 c445: x40 + x62 <= 1
 c446: x1 + x63 <= 1
 c447: x2 + x63 <= 1
 c448: x3 + x63 <= 1
 c449: x8 + x63 <= 1
 c450: x11 + x63 <= 1
 c451: x12 + x63 <= 1
 c452: x15 + x63 <= 1
 c453: x16 + x63 <= 1
 c454: x17 + x63 <= 1
 c455: x18 + x63 <= 1
 c456: x20 + x63 <= 1
 c457: x24 + x63 <= 1
 c458: x26 + x63 <= 1
 c459: x27 + x63 <= 1
 c460: x28 + x63 <= 1
 c461: x31 + x63 <= 1
 c462: x34 + x63 <= 1
 c463: x35 + x63 <= 1
 c464: x40 + x63 <= 1
 c465: x1 + x64 <= 1
 c466: x3 + x64 <= 1
 c467: x4 + x64 <= 1
 c468: x5 + x64 <= 1
 c469: x6 + x64 <= 1
 c470: x7 + x64 <= 1
 c471: x10 + x64 <= 1
 c472: x14 + x64 <= 1
 c473: x15 + x64 <= 1
 c474: x16 + x64 <= 1
 c475: x21 + x64 <= 1
 c476: x22 + x64 <= 1
 c477: x25 + x64 <= 1
 c478: x28 + x64 <= 1
 c479: x31 + x64 <= 1
 c480: x32 + x64 <= 1
 c481: x36 + x64 <= 1
 c482: x38 + x64 <= 1
 c483: x39 + x64 <= 1
 c484: x40 + x64 <= 1
 c485: x1 + x65 <= 1
 c486: x4 + x65 <= 1
 c487: x5 + x65 <= 1
 c488: x10 + x65 <= 1
 c489: x11 + x65 <= 1
 c490: x13 + x65 <= 1
 c491: x14 + x65 <= 1
 c492: x16 + x65 <= 1
 c493: x17 + x65 <= 1
 c494: x19 + x65 <= 1
 c495: x21 + x65 <= 1
 c496: x24 + x65 <= 1
 c497: x26 + x65 <= 1
 c498: x28 + x65 <= 1
 c499: x29 + x65 <= 1
 c500: x30 + x65 <= 1
 c501: x32 + x65 <= 1
 c502: x33 + x65 <= 1
 c503: x35 + x65 <= 1
 c504: x37 + x65 <= 1
 c505: x38 + x65 <= 1
 c506: x39 + x65 <= 1
 c507: x1 + x66 <= 1
 c508: x2 + x66 <= 1
 c509: x3 + x66 <= 1
 c510: x7 + x66 <= 1
 c511: x9 + x66 <= 1
 c512: x10 + x66 <= 1
 c513: x12 + x66 <= 1
 c514: x15 + x66 <= 1
 c515: x16 + x66 <= 1
 c516: x18 + x66 <= 1
 c517: x19 + x66 <= 1
 c518: x23 + x66 <= 1
 c519: x25 + x66 <= 1
 c520: x27 + x66 <= 1
 c521: x28 + x66 <= 1
 c522: x29 + x66 <= 1
 c523: x31 + x66 <= 1
 c524: x32 + x66 <= 1
 c525: x34 + x66 <= 1
 c526: x37 + x66 <= 1
 c527: x39 + x66 <= 1
 c528: x40 + x66 <= 1
 c529: x4 + x67 <= 1
 c530: x8 + x67 <= 1
 c531: x10 + x67 <= 1
 c532: x11 + x67 <= 1
 c533: x12 + x67 <= 1
 c534: x13 + x67 <= 1
 c535: x15 + x67 <= 1
 c536: x20 + x67 <= 1
 c537: x21 + x67 <= 1
 c538: x22 + x67 <= 1
 c539: x23 + x67 <= 1
 c540: x29 + x67 <= 1
 c541: x30 + x67 <= 1
 c542: x34 + x67 <= 1
 c543: x35 + x67 <= 1
 c544: x36 + x67 <= 1
 c545: x2 + x68 <= 1
 c546: x3 + x68 <= 1
 c547: x4 + x68 <= 1
 c548: x8 + x68 <= 1
 c549: x9 + x68 <= 1
 c550: x10 + x68 <= 1
 c551: x12 + x68 <= 1
 c552: x15 + x68 <= 1
 c553: x24 + x68 <= 1
 c554: x25 + x68 <= 1
 c555: x26 + x68 <= 1
 c556: x27 + x68 <= 1
 c557: x28 + x68 <= 1
 c558: x31 + x68 <= 1
 c559: x35 + x68 <= 1
 c560: x37 + x68 <= 1
 c561: x3 + x69 <= 1
 c562: x4 + x69 <= 1
 c563: x6 + x69 <= 1
 c564: x7 + x69 <= 1
 c565: x8 + x69 <= 1
 c566: x9 + x69 <= 1
 c567: x11 + x69 <= 1
 c568: x13 + x69 <= 1
 c569: x14 + x69 <= 1
 c570: x15 + x69 <= 1
 c571: x17 + x69 <= 1
 c572: x18 + x69 <= 1
 c573: x19 + x69 <= 1
 c574: x20 + x69 <= 1
 c575: x24 + x69 <= 1
 c576: x25 + x69 <= 1
 c577: x26 + x69 <= 1
 c578: x29 + x69 <= 1
 c579: x30 + x69 <= 1
 c580: x33 + x69 <= 1
 c581: x35 + x69 <= 1
 c582: x38 + x69 <= 1
 c583: x40 + x69 <= 1
 c584: x3 + x70 <= 1
 c585: x4 + x70 <= 1
 c586: x6 + x70 <= 1
 c587: x8 + x70 <= 1
 c588: x16 + x70 <= 1
 c589: x17 + x70 <= 1
 c590: x19 + x70 <= 1
 c591: x22 + x70 <= 1
 c592: x24 + x70 <= 1
 c593: x26 + x70 <= 1
 c594: x29 + x70 <= 1
 c595: x34 + x70 <= 1
 c596: x37 + x70 <= 1
 c597: x39 + x70 <= 1
 c598: x1 + x71 <= 1
 c599: x3 + x71 <= 1
 c600: x7 + x71 <= 1
 c601: x8 + x71 <= 1
 c602: x9 + x71 <= 1
 c603: x12 + x71 <= 1
 c604: x13 + x71 <= 1
 c605: x15 + x71 <= 1
 c606: x16 + x71 <= 1
 c607: x17 + x71 <= 1
 c608: x23 + x71 <= 1
 c609: x24 + x71 <= 1
 c610: x26 + x71 <= 1
 c611: x29 + x71 <= 1
 c612: x34 + x71 <= 1
 c613: x1 + x72 <= 1
 c614: x2 + x72 <= 1
 c615: x4 + x72 <= 1
 c616: x5 + x72 <= 1
 c617: x9 + x72 <= 1
 c618: x10 + x72 <= 1
 c619: x11 + x72 <= 1
 c620: x13 + x72 <= 1
 c621: x14 + x72 <= 1
 c622: x19 + x72 <= 1
 c623: x23 + x72 <= 1
 c624: x27 + x72 <= 1
 c625: x29 + x72 <= 1
 c626: x32 + x72 <= 1
 c627: x35 + x72 <= 1
 c628: x36 + x72 <= 1
 c629: x37 + x72 <= 1
 c630: x40 + x72 <= 1
 c631: x3 + x73 <= 1
 c632: x4 + x73 <= 1
 c633: x5 + x73 <= 1
 c634: x6 + x73 <= 1
 c635: x7 + x73 <= 1
 c636: x13 + x73 <= 1
 c637: x15 + x73 <= 1
 c638: x17 + x73 <= 1
 c639: x19 + x73 <= 1
 c640: x20 + x73 <= 1
 c641: x21 + x73 <= 1
 c642: x23 + x73 <= 1
 c643: x24 + x73 <= 1
 c644: x25 + x73 <= 1
 c645: x29 + x73 <= 1
 c646: x31 + x73 <= 1
 c647: x32 + x73 <= 1
 c648: x34 + x73 <= 1
 c649: x35 + x73 <= 1
 c650: x38 + x73 <= 1
 c651: x39 + x73 <= 1
 c652: x40 + x73 <= 1
 c653: x7 + x74 <= 1
 c654: x10 + x74 <= 1
 c655: x11 + x74 <= 1
 c656: x14 + x74 <= 1
 c657: x15 + x74 <= 1
 c658: x17 + x74 <= 1
 c659: x18 + x74 <= 1
 c660: x19 + x74 <= 1
 c661: x21 + x74 <= 1
 c662: x22 + x74 <= 1
 c663: x23 + x74 <= 1
 c664: x26 + x74 <= 1
 c665: x27 + x74 <= 1
 c666: x29 + x74 <= 1
 c667: x30 + x74 <= 1
 c668: x31 + x74 <= 1
 c669: x36 + x74 <= 1
 c670: x37 + x74 <= 1
 c671: x39 + x74 <= 1
 c672: x40 + x74 <= 1
 c673: x1 + x75 <= 1
 c674: x4 + x75 <= 1
 c675: x6 + x75 <= 1
 c676: x7 + x75 <= 1
 c677: x9 + x75 <= 1
 c678: x10 + x75 <= 1
 c679: x11 + x75 <= 1
 c680: x12 + x75 <= 1
 c681: x13 + x75 <= 1
 c682: x15 + x75 <= 1
 c683: x16 + x75 <= 1
 c684: x17 + x75 <= 1
 c685: x18 + x75 <= 1
 c686: x19 + x75 <= 1
 c687: x20 + x75 <= 1
 c688: x23 + x75 <= 1
 c689: x25 + x75 <= 1
 c690: x26 + x75 <= 1
 c691: x27 + x75 <= 1
 c692: x28 + x75 <= 1
 c693: x29 + x75 <= 1
 c694: x35 + x75 <= 1
 c695: x37 + x75 <= 1
 c696: x39 + x75 <= 1
 c697: x3 + x76 <= 1
 c698: x4 + x76 <= 1
 c699: x7 + x76 <= 1
 c700: x8 + x76 <= 1
 c701: x10 + x76 <= 1
 c702: x13 + x76 <= 1
 c703: x14 + x76 <= 1
 c704: x15 + x76 <= 1
 c705: x17 + x76 <= 1
 c706: x20 + x76 <= 1
 c707: x22 + x76 <= 1
 c708: x23 + x76 <= 1
 c709: x24 + x76 <= 1
 c710: x25 + x76 <= 1
 c711: x26 + x76 <= 1
 c712: x27 + x76 <= 1
 c713: x28 + x76 <= 1
 c714: x31 + x76 <= 1
 c715: x32 + x76 <= 1
 c716: x33 + x76 <= 1
 c717: x34 + x76 <= 1
 c718: x35 + x76 <= 1
 c719: x38 + x76 <= 1
 c720: x40 + x76 <= 1
 c721: x3 + x77 <= 1
 c722: x4 + x77 <= 1
 c723: x6 + x77 <= 1
 c724: x8 + x77 <= 1
 c725: x9 + x77 <= 1
 c726: x10 + x77 <= 1
 c727: x11 + x77 <= 1
 c728: x12 + x77 <= 1
 c729: x14 + x77 <= 1
 c730: x15 + x77 <= 1
 c731: x16 + x77 <= 1
 c732: x17 + x77 <= 1
 c733: x18 + x77 <= 1
 c734: x19 + x77 <= 1
 c735: x22 + x77 <= 1
 c736: x25 + x77 <= 1
 c737: x26 + x77 <= 1
 c738: x29 + x77 <= 1
 c739: x31 + x77 <= 1
 c740: x32 + x77 <= 1
 c741: x35 + x77 <= 1
 c742: x38 + x77 <= 1
 c743: x2 + x78 <= 1
 c744: x3 + x78 <= 1
 c745: x4 + x78 <= 1
 c746: x5 + x78 <= 1
 c747: x8 + x78 <= 1
 c748: x9 + x78 <= 1
 c749: x10 + x78 <= 1
 c750: x12 + x78 <= 1
 c751: x13 + x78 <= 1
 c752: x14 + x78 <= 1
 c753: x16 + x78 <= 1
 c754: x18 + x78 <= 1
 c755: x19 + x78 <= 1
 c756: x21 + x78 <= 1
 c757: x22 + x78 <= 1
 c758: x23 + x78 <= 1
 c759: x24 + x78 <= 1
 c760: x26 + x78 <= 1
 c761: x32 + x78 <= 1
 c762: x34 + x78 <= 1
 c763: x36 + x78 <= 1
 c764: x38 + x78 <= 1
 c765: x39 + x78 <= 1
 c766: x2 + x79 <= 1
 c767: x3 + x79 <= 1
 c768: x6 + x79 <= 1
 c769: x10 + x79 <= 1
 c770: x11 + x79 <= 1
 c771: x13 + x79 <= 1
 c772: x14 + x79 <= 1
 c773: x16 + x79 <= 1
 c774: x20 + x79 <= 1
 c775: x21 + x79 <= 1
 c776: x22 + x79 <= 1
 c777: x25 + x79 <= 1
 c778: x26 + x79 <= 1
 c779: x28 + x79 <= 1
 c780: x29 + x79 <= 1
 c781: x30 + x79 <= 1
 c782: x31 + x79 <= 1
 c783: x32 + x79 <= 1
 c784: x38 + x79 <= 1
 c785: x39 + x79 <= 1
 c786: x1 + x80 <= 1
 c787: x6 + x80 <= 1
 c788: x9 + x80 <= 1
 c789: x10 + x80 <= 1
 c790: x11 + x80 <= 1
 c791: x12 + x80 <= 1
 c792: x15 + x80 <= 1
 c793: x16 + x80 <= 1
 c794: x19 + x80 <= 1
 c795: x22 + x80 <= 1
 c796: x23 + x80 <= 1
 c797: x24 + x80 <= 1
 c798: x25 + x80 <= 1
 c799: x26 + x80 <= 1
 c800: x27 + x80 <= 1
 c801: x33 + x80 <= 1
 c802: x35 + x80 <= 1
 c803: x37 + x80 <= 1
 c804: x39 + x80 <= 1
Bounds
 0 <= x1 <= 1
 0 <= x2 <= 1
 0 <= x3 <= 1
 0 <= x4 <= 1
 0 <= x5 <= 1
 0 <= x6 <= 1
 0 <= x7 <= 1
 0 <= x8 <= 1
 0 <= x9 <= 1
 0 <= x10 <= 1
 0 <= x11 <= 1
 0 <= x12 <= 1
 0 <= x13 <= 1
 0 <= x14 <= 1
 0 <= x15 <= 1
 0 <= x16 <= 1
 0 <= x17 <= 1
 0 <= x18 <= 1
 0 <= x19 <= 1
 0 <= x20 <= 1
 0 <= x21 <= 1
 0 <= x22 <= 1
 0 <= x23 <= 1
 0 <= x24 <= 1
 0 <= x25 <= 1
 0 <= x26 <= 1
 0 <= x27 <= 1
 0 <= x28 <= 1
 0 <= x29 <= 1
 0 <= x30 <= 1
 0 <= x31 <= 1
 0 <= x32 <= 1
 0 <= x33 <= 1
 0 <= x34 <= 1
 0 <= x35 <= 1
 0 <= x36 <= 1
 0 <= x37 <= 1
 0 <= x38 <= 1
 0 <= x39 <= 1
 0 <= x40 <= 1
 0 <= x41 <= 1
 0 <= x42 <= 1
 0 <= x43 <= 1
 0 <= x44 <= 1
 0 <= x45 <= 1
 0 <= x46 <= 1
 0 <= x47 <= 1
 0 <= x48 <= 1
 0 <= x49 <= 1
 0 <= x50 <= 1
 0 <= x51 <= 1
 0 <= x52 <= 1
 0 <= x53 <= 1
 0 <= x54 <= 1
 0 <= x55 <= 1
 0 <= x56 <= 1
 0 <= x57 <= 1
 0 <= x58 <= 1
 0 <= x59 <= 1
 0 <= x60 <= 1
 0 <= x61 <= 1
 0 <= x62 <= 1
 0 <= x63 <= 1
 0 <= x64 <= 1
 0 <= x65 <= 1
 0 <= x66 <= 1
 0 <= x67 <= 1
 0 <= x68 <= 1
 0 <= x69 <= 1
 0 <= x70 <= 1
 0 <= x71 <= 1
 0 <= x72 <= 1
 0 <= x73 <= 1
 0 <= x74 <= 1
 0 <= x75 <= 1
 0 <= x76 <= 1
 0 <= x77 <= 1
 0 <= x78 <= 1
 0 <= x79 <= 1
 0 <= x80 <= 1
Binaries
 x1  x2  x3  x4  x5  x6  x7  x8  x9  x10  x11  x12  x13  x14  x15  x16  x17 
 x18  x19  x20  x21  x22  x23  x24  x25  x26  x27  x28  x29  x30  x31  x32 
 x33  x34  x35  x36  x37  x38  x39  x40  x41  x42  x43  x44  x45  x46  x47 
 x48  x49  x50  x51  x52  x53  x54  x55  x56  x57  x58  x59  x60  x61  x62 
 x63  x64  x65  x66  x67  x68  x69  x70  x71  x72  x73  x74  x75  x76  x77 
 x78  x79  x80 
End
